p cnf 45 845
c id 1 type at_least_one
1 2 3 4 5 6 7 8 9 0
c id 2 type at_most_one
-1 -2 0
c id 3 type at_most_one
-1 -3 0
c id 4 type at_most_one
-1 -4 0
c id 5 type at_most_one
-1 -5 0
c id 6 type at_most_one
-1 -6 0
c id 7 type at_most_one
-1 -7 0
c id 8 type at_most_one
-1 -8 0
c id 9 type at_most_one
-1 -9 0
c id 10 type at_most_one
-2 -3 0
c id 11 type at_most_one
-2 -4 0
c id 12 type at_most_one
-2 -5 0
c id 13 type at_most_one
-2 -6 0
c id 14 type at_most_one
-2 -7 0
c id 15 type at_most_one
-2 -8 0
c id 16 type at_most_one
-2 -9 0
c id 17 type at_most_one
-3 -4 0
c id 18 type at_most_one
-3 -5 0
c id 19 type at_most_one
-3 -6 0
c id 20 type at_most_one
-3 -7 0
c id 21 type at_most_one
-3 -8 0
c id 22 type at_most_one
-3 -9 0
c id 23 type at_most_one
-4 -5 0
c id 24 type at_most_one
-4 -6 0
c id 25 type at_most_one
-4 -7 0
c id 26 type at_most_one
-4 -8 0
c id 27 type at_most_one
-4 -9 0
c id 28 type at_most_one
-5 -6 0
c id 29 type at_most_one
-5 -7 0
c id 30 type at_most_one
-5 -8 0
c id 31 type at_most_one
-5 -9 0
c id 32 type at_most_one
-6 -7 0
c id 33 type at_most_one
-6 -8 0
c id 34 type at_most_one
-6 -9 0
c id 35 type at_most_one
-7 -8 0
c id 36 type at_most_one
-7 -9 0
c id 37 type at_most_one
-8 -9 0
c id 38 type at_least_one
10 11 12 13 14 15 16 17 18 0
c id 39 type at_most_one
-10 -11 0
c id 40 type at_most_one
-10 -12 0
c id 41 type at_most_one
-10 -13 0
c id 42 type at_most_one
-10 -14 0
c id 43 type at_most_one
-10 -15 0
c id 44 type at_most_one
-10 -16 0
c id 45 type at_most_one
-10 -17 0
c id 46 type at_most_one
-10 -18 0
c id 47 type at_most_one
-11 -12 0
c id 48 type at_most_one
-11 -13 0
c id 49 type at_most_one
-11 -14 0
c id 50 type at_most_one
-11 -15 0
c id 51 type at_most_one
-11 -16 0
c id 52 type at_most_one
-11 -17 0
c id 53 type at_most_one
-11 -18 0
c id 54 type at_most_one
-12 -13 0
c id 55 type at_most_one
-12 -14 0
c id 56 type at_most_one
-12 -15 0
c id 57 type at_most_one
-12 -16 0
c id 58 type at_most_one
-12 -17 0
c id 59 type at_most_one
-12 -18 0
c id 60 type at_most_one
-13 -14 0
c id 61 type at_most_one
-13 -15 0
c id 62 type at_most_one
-13 -16 0
c id 63 type at_most_one
-13 -17 0
c id 64 type at_most_one
-13 -18 0
c id 65 type at_most_one
-14 -15 0
c id 66 type at_most_one
-14 -16 0
c id 67 type at_most_one
-14 -17 0
c id 68 type at_most_one
-14 -18 0
c id 69 type at_most_one
-15 -16 0
c id 70 type at_most_one
-15 -17 0
c id 71 type at_most_one
-15 -18 0
c id 72 type at_most_one
-16 -17 0
c id 73 type at_most_one
-16 -18 0
c id 74 type at_most_one
-17 -18 0
c id 75 type at_least_one
19 20 21 22 23 24 25 26 27 0
c id 76 type at_most_one
-19 -20 0
c id 77 type at_most_one
-19 -21 0
c id 78 type at_most_one
-19 -22 0
c id 79 type at_most_one
-19 -23 0
c id 80 type at_most_one
-19 -24 0
c id 81 type at_most_one
-19 -25 0
c id 82 type at_most_one
-19 -26 0
c id 83 type at_most_one
-19 -27 0
c id 84 type at_most_one
-20 -21 0
c id 85 type at_most_one
-20 -22 0
c id 86 type at_most_one
-20 -23 0
c id 87 type at_most_one
-20 -24 0
c id 88 type at_most_one
-20 -25 0
c id 89 type at_most_one
-20 -26 0
c id 90 type at_most_one
-20 -27 0
c id 91 type at_most_one
-21 -22 0
c id 92 type at_most_one
-21 -23 0
c id 93 type at_most_one
-21 -24 0
c id 94 type at_most_one
-21 -25 0
c id 95 type at_most_one
-21 -26 0
c id 96 type at_most_one
-21 -27 0
c id 97 type at_most_one
-22 -23 0
c id 98 type at_most_one
-22 -24 0
c id 99 type at_most_one
-22 -25 0
c id 100 type at_most_one
-22 -26 0
c id 101 type at_most_one
-22 -27 0
c id 102 type at_most_one
-23 -24 0
c id 103 type at_most_one
-23 -25 0
c id 104 type at_most_one
-23 -26 0
c id 105 type at_most_one
-23 -27 0
c id 106 type at_most_one
-24 -25 0
c id 107 type at_most_one
-24 -26 0
c id 108 type at_most_one
-24 -27 0
c id 109 type at_most_one
-25 -26 0
c id 110 type at_most_one
-25 -27 0
c id 111 type at_most_one
-26 -27 0
c id 112 type at_least_one
28 29 30 31 32 33 34 35 36 0
c id 113 type at_most_one
-28 -29 0
c id 114 type at_most_one
-28 -30 0
c id 115 type at_most_one
-28 -31 0
c id 116 type at_most_one
-28 -32 0
c id 117 type at_most_one
-28 -33 0
c id 118 type at_most_one
-28 -34 0
c id 119 type at_most_one
-28 -35 0
c id 120 type at_most_one
-28 -36 0
c id 121 type at_most_one
-29 -30 0
c id 122 type at_most_one
-29 -31 0
c id 123 type at_most_one
-29 -32 0
c id 124 type at_most_one
-29 -33 0
c id 125 type at_most_one
-29 -34 0
c id 126 type at_most_one
-29 -35 0
c id 127 type at_most_one
-29 -36 0
c id 128 type at_most_one
-30 -31 0
c id 129 type at_most_one
-30 -32 0
c id 130 type at_most_one
-30 -33 0
c id 131 type at_most_one
-30 -34 0
c id 132 type at_most_one
-30 -35 0
c id 133 type at_most_one
-30 -36 0
c id 134 type at_most_one
-31 -32 0
c id 135 type at_most_one
-31 -33 0
c id 136 type at_most_one
-31 -34 0
c id 137 type at_most_one
-31 -35 0
c id 138 type at_most_one
-31 -36 0
c id 139 type at_most_one
-32 -33 0
c id 140 type at_most_one
-32 -34 0
c id 141 type at_most_one
-32 -35 0
c id 142 type at_most_one
-32 -36 0
c id 143 type at_most_one
-33 -34 0
c id 144 type at_most_one
-33 -35 0
c id 145 type at_most_one
-33 -36 0
c id 146 type at_most_one
-34 -35 0
c id 147 type at_most_one
-34 -36 0
c id 148 type at_most_one
-35 -36 0
c id 149 type at_least_one
37 38 39 40 41 42 43 44 45 0
c id 150 type at_most_one
-37 -38 0
c id 151 type at_most_one
-37 -39 0
c id 152 type at_most_one
-37 -40 0
c id 153 type at_most_one
-37 -41 0
c id 154 type at_most_one
-37 -42 0
c id 155 type at_most_one
-37 -43 0
c id 156 type at_most_one
-37 -44 0
c id 157 type at_most_one
-37 -45 0
c id 158 type at_most_one
-38 -39 0
c id 159 type at_most_one
-38 -40 0
c id 160 type at_most_one
-38 -41 0
c id 161 type at_most_one
-38 -42 0
c id 162 type at_most_one
-38 -43 0
c id 163 type at_most_one
-38 -44 0
c id 164 type at_most_one
-38 -45 0
c id 165 type at_most_one
-39 -40 0
c id 166 type at_most_one
-39 -41 0
c id 167 type at_most_one
-39 -42 0
c id 168 type at_most_one
-39 -43 0
c id 169 type at_most_one
-39 -44 0
c id 170 type at_most_one
-39 -45 0
c id 171 type at_most_one
-40 -41 0
c id 172 type at_most_one
-40 -42 0
c id 173 type at_most_one
-40 -43 0
c id 174 type at_most_one
-40 -44 0
c id 175 type at_most_one
-40 -45 0
c id 176 type at_most_one
-41 -42 0
c id 177 type at_most_one
-41 -43 0
c id 178 type at_most_one
-41 -44 0
c id 179 type at_most_one
-41 -45 0
c id 180 type at_most_one
-42 -43 0
c id 181 type at_most_one
-42 -44 0
c id 182 type at_most_one
-42 -45 0
c id 183 type at_most_one
-43 -44 0
c id 184 type at_most_one
-43 -45 0
c id 185 type at_most_one
-44 -45 0
c id 186 type mutual_exclusion
-1 -10 0
c id 187 type mutual_exclusion
-1 -19 0
c id 188 type mutual_exclusion
-1 -28 0
c id 189 type mutual_exclusion
-1 -37 0
c id 190 type mutual_exclusion
-10 -19 0
c id 191 type mutual_exclusion
-10 -28 0
c id 192 type mutual_exclusion
-10 -37 0
c id 193 type mutual_exclusion
-19 -28 0
c id 194 type mutual_exclusion
-19 -37 0
c id 195 type mutual_exclusion
-28 -37 0
c id 196 type mutual_exclusion
-2 -11 0
c id 197 type mutual_exclusion
-2 -20 0
c id 198 type mutual_exclusion
-2 -29 0
c id 199 type mutual_exclusion
-2 -38 0
c id 200 type mutual_exclusion
-11 -20 0
c id 201 type mutual_exclusion
-11 -29 0
c id 202 type mutual_exclusion
-11 -38 0
c id 203 type mutual_exclusion
-20 -29 0
c id 204 type mutual_exclusion
-20 -38 0
c id 205 type mutual_exclusion
-29 -38 0
c id 206 type mutual_exclusion
-3 -12 0
c id 207 type mutual_exclusion
-3 -21 0
c id 208 type mutual_exclusion
-3 -30 0
c id 209 type mutual_exclusion
-3 -39 0
c id 210 type mutual_exclusion
-12 -21 0
c id 211 type mutual_exclusion
-12 -30 0
c id 212 type mutual_exclusion
-12 -39 0
c id 213 type mutual_exclusion
-21 -30 0
c id 214 type mutual_exclusion
-21 -39 0
c id 215 type mutual_exclusion
-30 -39 0
c id 216 type mutual_exclusion
-4 -13 0
c id 217 type mutual_exclusion
-4 -22 0
c id 218 type mutual_exclusion
-4 -31 0
c id 219 type mutual_exclusion
-4 -40 0
c id 220 type mutual_exclusion
-13 -22 0
c id 221 type mutual_exclusion
-13 -31 0
c id 222 type mutual_exclusion
-13 -40 0
c id 223 type mutual_exclusion
-22 -31 0
c id 224 type mutual_exclusion
-22 -40 0
c id 225 type mutual_exclusion
-31 -40 0
c id 226 type mutual_exclusion
-5 -14 0
c id 227 type mutual_exclusion
-5 -23 0
c id 228 type mutual_exclusion
-5 -32 0
c id 229 type mutual_exclusion
-5 -41 0
c id 230 type mutual_exclusion
-14 -23 0
c id 231 type mutual_exclusion
-14 -32 0
c id 232 type mutual_exclusion
-14 -41 0
c id 233 type mutual_exclusion
-23 -32 0
c id 234 type mutual_exclusion
-23 -41 0
c id 235 type mutual_exclusion
-32 -41 0
c id 236 type mutual_exclusion
-6 -15 0
c id 237 type mutual_exclusion
-6 -24 0
c id 238 type mutual_exclusion
-6 -33 0
c id 239 type mutual_exclusion
-6 -42 0
c id 240 type mutual_exclusion
-15 -24 0
c id 241 type mutual_exclusion
-15 -33 0
c id 242 type mutual_exclusion
-15 -42 0
c id 243 type mutual_exclusion
-24 -33 0
c id 244 type mutual_exclusion
-24 -42 0
c id 245 type mutual_exclusion
-33 -42 0
c id 246 type mutual_exclusion
-7 -16 0
c id 247 type mutual_exclusion
-7 -25 0
c id 248 type mutual_exclusion
-7 -34 0
c id 249 type mutual_exclusion
-7 -43 0
c id 250 type mutual_exclusion
-16 -25 0
c id 251 type mutual_exclusion
-16 -34 0
c id 252 type mutual_exclusion
-16 -43 0
c id 253 type mutual_exclusion
-25 -34 0
c id 254 type mutual_exclusion
-25 -43 0
c id 255 type mutual_exclusion
-34 -43 0
c id 256 type mutual_exclusion
-8 -17 0
c id 257 type mutual_exclusion
-8 -26 0
c id 258 type mutual_exclusion
-8 -35 0
c id 259 type mutual_exclusion
-8 -44 0
c id 260 type mutual_exclusion
-17 -26 0
c id 261 type mutual_exclusion
-17 -35 0
c id 262 type mutual_exclusion
-17 -44 0
c id 263 type mutual_exclusion
-26 -35 0
c id 264 type mutual_exclusion
-26 -44 0
c id 265 type mutual_exclusion
-35 -44 0
c id 266 type mutual_exclusion
-9 -18 0
c id 267 type mutual_exclusion
-9 -27 0
c id 268 type mutual_exclusion
-9 -36 0
c id 269 type mutual_exclusion
-9 -45 0
c id 270 type mutual_exclusion
-18 -27 0
c id 271 type mutual_exclusion
-18 -36 0
c id 272 type mutual_exclusion
-18 -45 0
c id 273 type mutual_exclusion
-27 -36 0
c id 274 type mutual_exclusion
-27 -45 0
c id 275 type mutual_exclusion
-36 -45 0
c id 276 type edge_consistency
-1 -10 0
c id 277 type edge_consistency
-1 -12 0
c id 278 type edge_consistency
-1 -14 0
c id 279 type edge_consistency
-1 -15 0
c id 280 type edge_consistency
-1 -16 0
c id 281 type edge_consistency
-1 -17 0
c id 282 type edge_consistency
-1 -18 0
c id 283 type edge_consistency
-2 -11 0
c id 284 type edge_consistency
-2 -13 0
c id 285 type edge_consistency
-2 -15 0
c id 286 type edge_consistency
-2 -16 0
c id 287 type edge_consistency
-2 -17 0
c id 288 type edge_consistency
-2 -18 0
c id 289 type edge_consistency
-3 -10 0
c id 290 type edge_consistency
-3 -12 0
c id 291 type edge_consistency
-3 -13 0
c id 292 type edge_consistency
-3 -14 0
c id 293 type edge_consistency
-3 -16 0
c id 294 type edge_consistency
-3 -17 0
c id 295 type edge_consistency
-3 -18 0
c id 296 type edge_consistency
-4 -11 0
c id 297 type edge_consistency
-4 -12 0
c id 298 type edge_consistency
-4 -13 0
c id 299 type edge_consistency
-4 -15 0
c id 300 type edge_consistency
-4 -17 0
c id 301 type edge_consistency
-4 -18 0
c id 302 type edge_consistency
-5 -10 0
c id 303 type edge_consistency
-5 -12 0
c id 304 type edge_consistency
-5 -14 0
c id 305 type edge_consistency
-5 -16 0
c id 306 type edge_consistency
-5 -18 0
c id 307 type edge_consistency
-6 -10 0
c id 308 type edge_consistency
-6 -11 0
c id 309 type edge_consistency
-6 -13 0
c id 310 type edge_consistency
-6 -15 0
c id 311 type edge_consistency
-6 -16 0
c id 312 type edge_consistency
-6 -17 0
c id 313 type edge_consistency
-7 -10 0
c id 314 type edge_consistency
-7 -11 0
c id 315 type edge_consistency
-7 -12 0
c id 316 type edge_consistency
-7 -14 0
c id 317 type edge_consistency
-7 -15 0
c id 318 type edge_consistency
-7 -16 0
c id 319 type edge_consistency
-7 -18 0
c id 320 type edge_consistency
-8 -10 0
c id 321 type edge_consistency
-8 -11 0
c id 322 type edge_consistency
-8 -12 0
c id 323 type edge_consistency
-8 -13 0
c id 324 type edge_consistency
-8 -15 0
c id 325 type edge_consistency
-8 -17 0
c id 326 type edge_consistency
-9 -10 0
c id 327 type edge_consistency
-9 -11 0
c id 328 type edge_consistency
-9 -12 0
c id 329 type edge_consistency
-9 -13 0
c id 330 type edge_consistency
-9 -14 0
c id 331 type edge_consistency
-9 -16 0
c id 332 type edge_consistency
-9 -18 0
c id 333 type edge_consistency
-1 -19 0
c id 334 type edge_consistency
-1 -21 0
c id 335 type edge_consistency
-1 -23 0
c id 336 type edge_consistency
-1 -24 0
c id 337 type edge_consistency
-1 -25 0
c id 338 type edge_consistency
-1 -26 0
c id 339 type edge_consistency
-1 -27 0
c id 340 type edge_consistency
-2 -20 0
c id 341 type edge_consistency
-2 -22 0
c id 342 type edge_consistency
-2 -24 0
c id 343 type edge_consistency
-2 -25 0
c id 344 type edge_consistency
-2 -26 0
c id 345 type edge_consistency
-2 -27 0
c id 346 type edge_consistency
-3 -19 0
c id 347 type edge_consistency
-3 -21 0
c id 348 type edge_consistency
-3 -22 0
c id 349 type edge_consistency
-3 -23 0
c id 350 type edge_consistency
-3 -25 0
c id 351 type edge_consistency
-3 -26 0
c id 352 type edge_consistency
-3 -27 0
c id 353 type edge_consistency
-4 -20 0
c id 354 type edge_consistency
-4 -21 0
c id 355 type edge_consistency
-4 -22 0
c id 356 type edge_consistency
-4 -24 0
c id 357 type edge_consistency
-4 -26 0
c id 358 type edge_consistency
-4 -27 0
c id 359 type edge_consistency
-5 -19 0
c id 360 type edge_consistency
-5 -21 0
c id 361 type edge_consistency
-5 -23 0
c id 362 type edge_consistency
-5 -25 0
c id 363 type edge_consistency
-5 -27 0
c id 364 type edge_consistency
-6 -19 0
c id 365 type edge_consistency
-6 -20 0
c id 366 type edge_consistency
-6 -22 0
c id 367 type edge_consistency
-6 -24 0
c id 368 type edge_consistency
-6 -25 0
c id 369 type edge_consistency
-6 -26 0
c id 370 type edge_consistency
-7 -19 0
c id 371 type edge_consistency
-7 -20 0
c id 372 type edge_consistency
-7 -21 0
c id 373 type edge_consistency
-7 -23 0
c id 374 type edge_consistency
-7 -24 0
c id 375 type edge_consistency
-7 -25 0
c id 376 type edge_consistency
-7 -27 0
c id 377 type edge_consistency
-8 -19 0
c id 378 type edge_consistency
-8 -20 0
c id 379 type edge_consistency
-8 -21 0
c id 380 type edge_consistency
-8 -22 0
c id 381 type edge_consistency
-8 -24 0
c id 382 type edge_consistency
-8 -26 0
c id 383 type edge_consistency
-9 -19 0
c id 384 type edge_consistency
-9 -20 0
c id 385 type edge_consistency
-9 -21 0
c id 386 type edge_consistency
-9 -22 0
c id 387 type edge_consistency
-9 -23 0
c id 388 type edge_consistency
-9 -25 0
c id 389 type edge_consistency
-9 -27 0
c id 390 type edge_consistency
-1 -28 0
c id 391 type edge_consistency
-1 -30 0
c id 392 type edge_consistency
-1 -32 0
c id 393 type edge_consistency
-1 -33 0
c id 394 type edge_consistency
-1 -34 0
c id 395 type edge_consistency
-1 -35 0
c id 396 type edge_consistency
-1 -36 0
c id 397 type edge_consistency
-2 -29 0
c id 398 type edge_consistency
-2 -31 0
c id 399 type edge_consistency
-2 -33 0
c id 400 type edge_consistency
-2 -34 0
c id 401 type edge_consistency
-2 -35 0
c id 402 type edge_consistency
-2 -36 0
c id 403 type edge_consistency
-3 -28 0
c id 404 type edge_consistency
-3 -30 0
c id 405 type edge_consistency
-3 -31 0
c id 406 type edge_consistency
-3 -32 0
c id 407 type edge_consistency
-3 -34 0
c id 408 type edge_consistency
-3 -35 0
c id 409 type edge_consistency
-3 -36 0
c id 410 type edge_consistency
-4 -29 0
c id 411 type edge_consistency
-4 -30 0
c id 412 type edge_consistency
-4 -31 0
c id 413 type edge_consistency
-4 -33 0
c id 414 type edge_consistency
-4 -35 0
c id 415 type edge_consistency
-4 -36 0
c id 416 type edge_consistency
-5 -28 0
c id 417 type edge_consistency
-5 -30 0
c id 418 type edge_consistency
-5 -32 0
c id 419 type edge_consistency
-5 -34 0
c id 420 type edge_consistency
-5 -36 0
c id 421 type edge_consistency
-6 -28 0
c id 422 type edge_consistency
-6 -29 0
c id 423 type edge_consistency
-6 -31 0
c id 424 type edge_consistency
-6 -33 0
c id 425 type edge_consistency
-6 -34 0
c id 426 type edge_consistency
-6 -35 0
c id 427 type edge_consistency
-7 -28 0
c id 428 type edge_consistency
-7 -29 0
c id 429 type edge_consistency
-7 -30 0
c id 430 type edge_consistency
-7 -32 0
c id 431 type edge_consistency
-7 -33 0
c id 432 type edge_consistency
-7 -34 0
c id 433 type edge_consistency
-7 -36 0
c id 434 type edge_consistency
-8 -28 0
c id 435 type edge_consistency
-8 -29 0
c id 436 type edge_consistency
-8 -30 0
c id 437 type edge_consistency
-8 -31 0
c id 438 type edge_consistency
-8 -33 0
c id 439 type edge_consistency
-8 -35 0
c id 440 type edge_consistency
-9 -28 0
c id 441 type edge_consistency
-9 -29 0
c id 442 type edge_consistency
-9 -30 0
c id 443 type edge_consistency
-9 -31 0
c id 444 type edge_consistency
-9 -32 0
c id 445 type edge_consistency
-9 -34 0
c id 446 type edge_consistency
-9 -36 0
c id 447 type edge_consistency
-1 -37 0
c id 448 type edge_consistency
-1 -39 0
c id 449 type edge_consistency
-1 -41 0
c id 450 type edge_consistency
-1 -42 0
c id 451 type edge_consistency
-1 -43 0
c id 452 type edge_consistency
-1 -44 0
c id 453 type edge_consistency
-1 -45 0
c id 454 type edge_consistency
-2 -38 0
c id 455 type edge_consistency
-2 -40 0
c id 456 type edge_consistency
-2 -42 0
c id 457 type edge_consistency
-2 -43 0
c id 458 type edge_consistency
-2 -44 0
c id 459 type edge_consistency
-2 -45 0
c id 460 type edge_consistency
-3 -37 0
c id 461 type edge_consistency
-3 -39 0
c id 462 type edge_consistency
-3 -40 0
c id 463 type edge_consistency
-3 -41 0
c id 464 type edge_consistency
-3 -43 0
c id 465 type edge_consistency
-3 -44 0
c id 466 type edge_consistency
-3 -45 0
c id 467 type edge_consistency
-4 -38 0
c id 468 type edge_consistency
-4 -39 0
c id 469 type edge_consistency
-4 -40 0
c id 470 type edge_consistency
-4 -42 0
c id 471 type edge_consistency
-4 -44 0
c id 472 type edge_consistency
-4 -45 0
c id 473 type edge_consistency
-5 -37 0
c id 474 type edge_consistency
-5 -39 0
c id 475 type edge_consistency
-5 -41 0
c id 476 type edge_consistency
-5 -43 0
c id 477 type edge_consistency
-5 -45 0
c id 478 type edge_consistency
-6 -37 0
c id 479 type edge_consistency
-6 -38 0
c id 480 type edge_consistency
-6 -40 0
c id 481 type edge_consistency
-6 -42 0
c id 482 type edge_consistency
-6 -43 0
c id 483 type edge_consistency
-6 -44 0
c id 484 type edge_consistency
-7 -37 0
c id 485 type edge_consistency
-7 -38 0
c id 486 type edge_consistency
-7 -39 0
c id 487 type edge_consistency
-7 -41 0
c id 488 type edge_consistency
-7 -42 0
c id 489 type edge_consistency
-7 -43 0
c id 490 type edge_consistency
-7 -45 0
c id 491 type edge_consistency
-8 -37 0
c id 492 type edge_consistency
-8 -38 0
c id 493 type edge_consistency
-8 -39 0
c id 494 type edge_consistency
-8 -40 0
c id 495 type edge_consistency
-8 -42 0
c id 496 type edge_consistency
-8 -44 0
c id 497 type edge_consistency
-9 -37 0
c id 498 type edge_consistency
-9 -38 0
c id 499 type edge_consistency
-9 -39 0
c id 500 type edge_consistency
-9 -40 0
c id 501 type edge_consistency
-9 -41 0
c id 502 type edge_consistency
-9 -43 0
c id 503 type edge_consistency
-9 -45 0
c id 504 type edge_consistency
-10 -19 0
c id 505 type edge_consistency
-10 -21 0
c id 506 type edge_consistency
-10 -23 0
c id 507 type edge_consistency
-10 -24 0
c id 508 type edge_consistency
-10 -25 0
c id 509 type edge_consistency
-10 -26 0
c id 510 type edge_consistency
-10 -27 0
c id 511 type edge_consistency
-11 -20 0
c id 512 type edge_consistency
-11 -22 0
c id 513 type edge_consistency
-11 -24 0
c id 514 type edge_consistency
-11 -25 0
c id 515 type edge_consistency
-11 -26 0
c id 516 type edge_consistency
-11 -27 0
c id 517 type edge_consistency
-12 -19 0
c id 518 type edge_consistency
-12 -21 0
c id 519 type edge_consistency
-12 -22 0
c id 520 type edge_consistency
-12 -23 0
c id 521 type edge_consistency
-12 -25 0
c id 522 type edge_consistency
-12 -26 0
c id 523 type edge_consistency
-12 -27 0
c id 524 type edge_consistency
-13 -20 0
c id 525 type edge_consistency
-13 -21 0
c id 526 type edge_consistency
-13 -22 0
c id 527 type edge_consistency
-13 -24 0
c id 528 type edge_consistency
-13 -26 0
c id 529 type edge_consistency
-13 -27 0
c id 530 type edge_consistency
-14 -19 0
c id 531 type edge_consistency
-14 -21 0
c id 532 type edge_consistency
-14 -23 0
c id 533 type edge_consistency
-14 -25 0
c id 534 type edge_consistency
-14 -27 0
c id 535 type edge_consistency
-15 -19 0
c id 536 type edge_consistency
-15 -20 0
c id 537 type edge_consistency
-15 -22 0
c id 538 type edge_consistency
-15 -24 0
c id 539 type edge_consistency
-15 -25 0
c id 540 type edge_consistency
-15 -26 0
c id 541 type edge_consistency
-16 -19 0
c id 542 type edge_consistency
-16 -20 0
c id 543 type edge_consistency
-16 -21 0
c id 544 type edge_consistency
-16 -23 0
c id 545 type edge_consistency
-16 -24 0
c id 546 type edge_consistency
-16 -25 0
c id 547 type edge_consistency
-16 -27 0
c id 548 type edge_consistency
-17 -19 0
c id 549 type edge_consistency
-17 -20 0
c id 550 type edge_consistency
-17 -21 0
c id 551 type edge_consistency
-17 -22 0
c id 552 type edge_consistency
-17 -24 0
c id 553 type edge_consistency
-17 -26 0
c id 554 type edge_consistency
-18 -19 0
c id 555 type edge_consistency
-18 -20 0
c id 556 type edge_consistency
-18 -21 0
c id 557 type edge_consistency
-18 -22 0
c id 558 type edge_consistency
-18 -23 0
c id 559 type edge_consistency
-18 -25 0
c id 560 type edge_consistency
-18 -27 0
c id 561 type edge_consistency
-10 -28 0
c id 562 type edge_consistency
-10 -30 0
c id 563 type edge_consistency
-10 -32 0
c id 564 type edge_consistency
-10 -33 0
c id 565 type edge_consistency
-10 -34 0
c id 566 type edge_consistency
-10 -35 0
c id 567 type edge_consistency
-10 -36 0
c id 568 type edge_consistency
-11 -29 0
c id 569 type edge_consistency
-11 -31 0
c id 570 type edge_consistency
-11 -33 0
c id 571 type edge_consistency
-11 -34 0
c id 572 type edge_consistency
-11 -35 0
c id 573 type edge_consistency
-11 -36 0
c id 574 type edge_consistency
-12 -28 0
c id 575 type edge_consistency
-12 -30 0
c id 576 type edge_consistency
-12 -31 0
c id 577 type edge_consistency
-12 -32 0
c id 578 type edge_consistency
-12 -34 0
c id 579 type edge_consistency
-12 -35 0
c id 580 type edge_consistency
-12 -36 0
c id 581 type edge_consistency
-13 -29 0
c id 582 type edge_consistency
-13 -30 0
c id 583 type edge_consistency
-13 -31 0
c id 584 type edge_consistency
-13 -33 0
c id 585 type edge_consistency
-13 -35 0
c id 586 type edge_consistency
-13 -36 0
c id 587 type edge_consistency
-14 -28 0
c id 588 type edge_consistency
-14 -30 0
c id 589 type edge_consistency
-14 -32 0
c id 590 type edge_consistency
-14 -34 0
c id 591 type edge_consistency
-14 -36 0
c id 592 type edge_consistency
-15 -28 0
c id 593 type edge_consistency
-15 -29 0
c id 594 type edge_consistency
-15 -31 0
c id 595 type edge_consistency
-15 -33 0
c id 596 type edge_consistency
-15 -34 0
c id 597 type edge_consistency
-15 -35 0
c id 598 type edge_consistency
-16 -28 0
c id 599 type edge_consistency
-16 -29 0
c id 600 type edge_consistency
-16 -30 0
c id 601 type edge_consistency
-16 -32 0
c id 602 type edge_consistency
-16 -33 0
c id 603 type edge_consistency
-16 -34 0
c id 604 type edge_consistency
-16 -36 0
c id 605 type edge_consistency
-17 -28 0
c id 606 type edge_consistency
-17 -29 0
c id 607 type edge_consistency
-17 -30 0
c id 608 type edge_consistency
-17 -31 0
c id 609 type edge_consistency
-17 -33 0
c id 610 type edge_consistency
-17 -35 0
c id 611 type edge_consistency
-18 -28 0
c id 612 type edge_consistency
-18 -29 0
c id 613 type edge_consistency
-18 -30 0
c id 614 type edge_consistency
-18 -31 0
c id 615 type edge_consistency
-18 -32 0
c id 616 type edge_consistency
-18 -34 0
c id 617 type edge_consistency
-18 -36 0
c id 618 type edge_consistency
-10 -37 0
c id 619 type edge_consistency
-10 -39 0
c id 620 type edge_consistency
-10 -41 0
c id 621 type edge_consistency
-10 -42 0
c id 622 type edge_consistency
-10 -43 0
c id 623 type edge_consistency
-10 -44 0
c id 624 type edge_consistency
-10 -45 0
c id 625 type edge_consistency
-11 -38 0
c id 626 type edge_consistency
-11 -40 0
c id 627 type edge_consistency
-11 -42 0
c id 628 type edge_consistency
-11 -43 0
c id 629 type edge_consistency
-11 -44 0
c id 630 type edge_consistency
-11 -45 0
c id 631 type edge_consistency
-12 -37 0
c id 632 type edge_consistency
-12 -39 0
c id 633 type edge_consistency
-12 -40 0
c id 634 type edge_consistency
-12 -41 0
c id 635 type edge_consistency
-12 -43 0
c id 636 type edge_consistency
-12 -44 0
c id 637 type edge_consistency
-12 -45 0
c id 638 type edge_consistency
-13 -38 0
c id 639 type edge_consistency
-13 -39 0
c id 640 type edge_consistency
-13 -40 0
c id 641 type edge_consistency
-13 -42 0
c id 642 type edge_consistency
-13 -44 0
c id 643 type edge_consistency
-13 -45 0
c id 644 type edge_consistency
-14 -37 0
c id 645 type edge_consistency
-14 -39 0
c id 646 type edge_consistency
-14 -41 0
c id 647 type edge_consistency
-14 -43 0
c id 648 type edge_consistency
-14 -45 0
c id 649 type edge_consistency
-15 -37 0
c id 650 type edge_consistency
-15 -38 0
c id 651 type edge_consistency
-15 -40 0
c id 652 type edge_consistency
-15 -42 0
c id 653 type edge_consistency
-15 -43 0
c id 654 type edge_consistency
-15 -44 0
c id 655 type edge_consistency
-16 -37 0
c id 656 type edge_consistency
-16 -38 0
c id 657 type edge_consistency
-16 -39 0
c id 658 type edge_consistency
-16 -41 0
c id 659 type edge_consistency
-16 -42 0
c id 660 type edge_consistency
-16 -43 0
c id 661 type edge_consistency
-16 -45 0
c id 662 type edge_consistency
-17 -37 0
c id 663 type edge_consistency
-17 -38 0
c id 664 type edge_consistency
-17 -39 0
c id 665 type edge_consistency
-17 -40 0
c id 666 type edge_consistency
-17 -42 0
c id 667 type edge_consistency
-17 -44 0
c id 668 type edge_consistency
-18 -37 0
c id 669 type edge_consistency
-18 -38 0
c id 670 type edge_consistency
-18 -39 0
c id 671 type edge_consistency
-18 -40 0
c id 672 type edge_consistency
-18 -41 0
c id 673 type edge_consistency
-18 -43 0
c id 674 type edge_consistency
-18 -45 0
c id 675 type edge_consistency
-19 -28 0
c id 676 type edge_consistency
-19 -30 0
c id 677 type edge_consistency
-19 -32 0
c id 678 type edge_consistency
-19 -33 0
c id 679 type edge_consistency
-19 -34 0
c id 680 type edge_consistency
-19 -35 0
c id 681 type edge_consistency
-19 -36 0
c id 682 type edge_consistency
-20 -29 0
c id 683 type edge_consistency
-20 -31 0
c id 684 type edge_consistency
-20 -33 0
c id 685 type edge_consistency
-20 -34 0
c id 686 type edge_consistency
-20 -35 0
c id 687 type edge_consistency
-20 -36 0
c id 688 type edge_consistency
-21 -28 0
c id 689 type edge_consistency
-21 -30 0
c id 690 type edge_consistency
-21 -31 0
c id 691 type edge_consistency
-21 -32 0
c id 692 type edge_consistency
-21 -34 0
c id 693 type edge_consistency
-21 -35 0
c id 694 type edge_consistency
-21 -36 0
c id 695 type edge_consistency
-22 -29 0
c id 696 type edge_consistency
-22 -30 0
c id 697 type edge_consistency
-22 -31 0
c id 698 type edge_consistency
-22 -33 0
c id 699 type edge_consistency
-22 -35 0
c id 700 type edge_consistency
-22 -36 0
c id 701 type edge_consistency
-23 -28 0
c id 702 type edge_consistency
-23 -30 0
c id 703 type edge_consistency
-23 -32 0
c id 704 type edge_consistency
-23 -34 0
c id 705 type edge_consistency
-23 -36 0
c id 706 type edge_consistency
-24 -28 0
c id 707 type edge_consistency
-24 -29 0
c id 708 type edge_consistency
-24 -31 0
c id 709 type edge_consistency
-24 -33 0
c id 710 type edge_consistency
-24 -34 0
c id 711 type edge_consistency
-24 -35 0
c id 712 type edge_consistency
-25 -28 0
c id 713 type edge_consistency
-25 -29 0
c id 714 type edge_consistency
-25 -30 0
c id 715 type edge_consistency
-25 -32 0
c id 716 type edge_consistency
-25 -33 0
c id 717 type edge_consistency
-25 -34 0
c id 718 type edge_consistency
-25 -36 0
c id 719 type edge_consistency
-26 -28 0
c id 720 type edge_consistency
-26 -29 0
c id 721 type edge_consistency
-26 -30 0
c id 722 type edge_consistency
-26 -31 0
c id 723 type edge_consistency
-26 -33 0
c id 724 type edge_consistency
-26 -35 0
c id 725 type edge_consistency
-27 -28 0
c id 726 type edge_consistency
-27 -29 0
c id 727 type edge_consistency
-27 -30 0
c id 728 type edge_consistency
-27 -31 0
c id 729 type edge_consistency
-27 -32 0
c id 730 type edge_consistency
-27 -34 0
c id 731 type edge_consistency
-27 -36 0
c id 732 type edge_consistency
-19 -37 0
c id 733 type edge_consistency
-19 -39 0
c id 734 type edge_consistency
-19 -41 0
c id 735 type edge_consistency
-19 -42 0
c id 736 type edge_consistency
-19 -43 0
c id 737 type edge_consistency
-19 -44 0
c id 738 type edge_consistency
-19 -45 0
c id 739 type edge_consistency
-20 -38 0
c id 740 type edge_consistency
-20 -40 0
c id 741 type edge_consistency
-20 -42 0
c id 742 type edge_consistency
-20 -43 0
c id 743 type edge_consistency
-20 -44 0
c id 744 type edge_consistency
-20 -45 0
c id 745 type edge_consistency
-21 -37 0
c id 746 type edge_consistency
-21 -39 0
c id 747 type edge_consistency
-21 -40 0
c id 748 type edge_consistency
-21 -41 0
c id 749 type edge_consistency
-21 -43 0
c id 750 type edge_consistency
-21 -44 0
c id 751 type edge_consistency
-21 -45 0
c id 752 type edge_consistency
-22 -38 0
c id 753 type edge_consistency
-22 -39 0
c id 754 type edge_consistency
-22 -40 0
c id 755 type edge_consistency
-22 -42 0
c id 756 type edge_consistency
-22 -44 0
c id 757 type edge_consistency
-22 -45 0
c id 758 type edge_consistency
-23 -37 0
c id 759 type edge_consistency
-23 -39 0
c id 760 type edge_consistency
-23 -41 0
c id 761 type edge_consistency
-23 -43 0
c id 762 type edge_consistency
-23 -45 0
c id 763 type edge_consistency
-24 -37 0
c id 764 type edge_consistency
-24 -38 0
c id 765 type edge_consistency
-24 -40 0
c id 766 type edge_consistency
-24 -42 0
c id 767 type edge_consistency
-24 -43 0
c id 768 type edge_consistency
-24 -44 0
c id 769 type edge_consistency
-25 -37 0
c id 770 type edge_consistency
-25 -38 0
c id 771 type edge_consistency
-25 -39 0
c id 772 type edge_consistency
-25 -41 0
c id 773 type edge_consistency
-25 -42 0
c id 774 type edge_consistency
-25 -43 0
c id 775 type edge_consistency
-25 -45 0
c id 776 type edge_consistency
-26 -37 0
c id 777 type edge_consistency
-26 -38 0
c id 778 type edge_consistency
-26 -39 0
c id 779 type edge_consistency
-26 -40 0
c id 780 type edge_consistency
-26 -42 0
c id 781 type edge_consistency
-26 -44 0
c id 782 type edge_consistency
-27 -37 0
c id 783 type edge_consistency
-27 -38 0
c id 784 type edge_consistency
-27 -39 0
c id 785 type edge_consistency
-27 -40 0
c id 786 type edge_consistency
-27 -41 0
c id 787 type edge_consistency
-27 -43 0
c id 788 type edge_consistency
-27 -45 0
c id 789 type edge_consistency
-28 -37 0
c id 790 type edge_consistency
-28 -39 0
c id 791 type edge_consistency
-28 -41 0
c id 792 type edge_consistency
-28 -42 0
c id 793 type edge_consistency
-28 -43 0
c id 794 type edge_consistency
-28 -44 0
c id 795 type edge_consistency
-28 -45 0
c id 796 type edge_consistency
-29 -38 0
c id 797 type edge_consistency
-29 -40 0
c id 798 type edge_consistency
-29 -42 0
c id 799 type edge_consistency
-29 -43 0
c id 800 type edge_consistency
-29 -44 0
c id 801 type edge_consistency
-29 -45 0
c id 802 type edge_consistency
-30 -37 0
c id 803 type edge_consistency
-30 -39 0
c id 804 type edge_consistency
-30 -40 0
c id 805 type edge_consistency
-30 -41 0
c id 806 type edge_consistency
-30 -43 0
c id 807 type edge_consistency
-30 -44 0
c id 808 type edge_consistency
-30 -45 0
c id 809 type edge_consistency
-31 -38 0
c id 810 type edge_consistency
-31 -39 0
c id 811 type edge_consistency
-31 -40 0
c id 812 type edge_consistency
-31 -42 0
c id 813 type edge_consistency
-31 -44 0
c id 814 type edge_consistency
-31 -45 0
c id 815 type edge_consistency
-32 -37 0
c id 816 type edge_consistency
-32 -39 0
c id 817 type edge_consistency
-32 -41 0
c id 818 type edge_consistency
-32 -43 0
c id 819 type edge_consistency
-32 -45 0
c id 820 type edge_consistency
-33 -37 0
c id 821 type edge_consistency
-33 -38 0
c id 822 type edge_consistency
-33 -40 0
c id 823 type edge_consistency
-33 -42 0
c id 824 type edge_consistency
-33 -43 0
c id 825 type edge_consistency
-33 -44 0
c id 826 type edge_consistency
-34 -37 0
c id 827 type edge_consistency
-34 -38 0
c id 828 type edge_consistency
-34 -39 0
c id 829 type edge_consistency
-34 -41 0
c id 830 type edge_consistency
-34 -42 0
c id 831 type edge_consistency
-34 -43 0
c id 832 type edge_consistency
-34 -45 0
c id 833 type edge_consistency
-35 -37 0
c id 834 type edge_consistency
-35 -38 0
c id 835 type edge_consistency
-35 -39 0
c id 836 type edge_consistency
-35 -40 0
c id 837 type edge_consistency
-35 -42 0
c id 838 type edge_consistency
-35 -44 0
c id 839 type edge_consistency
-36 -37 0
c id 840 type edge_consistency
-36 -38 0
c id 841 type edge_consistency
-36 -39 0
c id 842 type edge_consistency
-36 -40 0
c id 843 type edge_consistency
-36 -41 0
c id 844 type edge_consistency
-36 -43 0
c id 845 type edge_consistency
-36 -45 0
